c SAT problem
p wcnf 382 964
1 -60 75 0
1 75 3150 0
1 75 3120 0
1 90 3090 0
1 105 3150 0
1 -105 3060 0
1 -105 -3165 0
1 -3120 -135 0
1 -3120 -105 0
1 -3120 -120 0
1 -3135 3136 0
1 -3135 -135 0
1 3135 -75 0
1 3135 -3120 0
1 -3150 196 0
1 3150 -121 0
1 3165 -121 0
1 -120 3090 0
1 -135 -3120 0
1 135 -3060 0
1 -135 120 0
1 150 -3060 0
1 150 -3030 0
1 -150 -3135 0
1 165 -3090 0
1 -3060 195 0
1 -3060 165 0
1 3060 240 0
1 3060 210 0
1 3060 -120 0
1 -3060 90 0
1 -3075 -3076 0
1 3075 -165 0
1 3075 -3060 0
1 3090 -3105 0
1 -3090 -165 0
1 3090 -240 0
1 3090 -181 0
1 3090 -150 0
1 -3105 196 0
1 3105 165 0
1 3105 -135 0
1 -180 -195 0
1 180 3015 0
1 -180 -181 0
1 -195 196 0
1 -195 -180 0
1 210 225 0
1 225 226 0
1 -225 -3045 0
1 225 3060 0
1 3000 165 0
1 -3000 -300 0
1 -3000 -180 0
1 3015 -195 0
1 -3015 -300 0
1 3015 315 0
1 3030 -270 0
1 -3030 -285 0
1 -3045 -300 0
1 3045 -285 0
1 -61 3300 0
1 61 -3345 0
1 76 -3330 0
1 91 -3300 0
1 -106 3330 0
1 106 -3255 0
1 -3300 -166 0
1 3300 76 0
1 3300 3315 0
1 3300 151 0
1 3300 91 0
1 -3315 -151 0
1 -3315 91 0
1 -3330 -76 0
1 3330 182 0
1 3330 -91 0
1 3345 106 0
1 -121 3315 0
1 121 3285 0
1 136 -3300 0
1 -136 -3150 0
1 136 121 0
1 -136 -3165 0
1 -151 -3150 0
1 151 3195 0
1 -166 3195 0
1 3240 -3241 0
1 -3240 -211 0
1 -3255 -256 0
1 3255 106 0
1 -3255 211 0
1 3270 227 0
1 3270 3271 0
1 3270 106 0
1 -3270 -241 0
1 3270 -121 0
1 3285 -256 0
1 3285 227 0
1 -3285 -3270 0
1 -3285 -182 0
1 3285 121 0
1 181 3105 0
1 -181 -3150 0
1 181 3120 0
1 181 -180 0
1 -196 -195 0
1 196 3240 0
1 196 -3120 0
1 -196 181 0
1 211 -3105 0
1 -211 -3240 0
1 -211 3151 0
1 -226 -3210 0
1 -226 3225 0
1 3180 -196 0
1 3180 -240 0
1 3195 211 0
1 3195 151 0
1 -3210 196 0
1 -3210 166 0
1 3210 271 0
1 -3210 -3225 0
1 -3210 286 0
1 3225 226 0
1 3225 -3210 0
1 -3225 -271 0
1 -3225 -241 0
1 240 3045 0
1 240 -3180 0
1 240 3151 0
1 -240 -241 0
1 -255 -3045 0
1 -255 -3195 0
1 -270 -3106 0
1 270 3045 0
1 270 3151 0
1 -285 3106 0
1 -285 -270 0
1 285 -3166 0
1 -285 -3195 0
1 3121 3136 0
1 3121 -300 0
1 3121 -3122 0
1 3121 376 0
1 -3136 270 0
1 -3136 -211 0
1 3151 -270 0
1 -3151 -376 0
1 3151 3166 0
1 3166 -361 0
1 -3166 270 0
1 -3166 3167 0
1 -300 3045 0
1 -300 315 0
1 315 3136 0
1 315 -3106 0
1 330 3001 0
1 -345 3046 0
1 345 3121 0
1 -345 3091 0
1 3061 330 0
1 -3061 405 0
1 -3076 -420 0
1 -3076 -390 0
1 3076 405 0
1 -3091 391 0
1 -3091 -361 0
1 -3091 345 0
1 -3106 -376 0
1 360 3061 0
1 375 -3016 0
1 375 -3031 0
1 -390 3061 0
1 -405 -3061 0
1 -3001 -390 0
1 3001 -3016 0
1 3031 -450 0
1 3031 -3046 0
1 3031 -465 0
1 3046 -450 0
1 -3046 420 0
1 -3046 -3045 0
1 62 -3510 0
1 -77 -3510 0
1 92 -107 0
1 92 3480 0
1 92 -93 0
1 -107 -106 0
1 -3480 167 0
1 -3480 -137 0
1 3480 -152 0
1 3495 -183 0
1 -3495 92 0
1 3510 -168 0
1 3510 -62 0
1 -3525 183 0
1 3525 -153 0
1 -3525 92 0
1 -3525 -62 0
1 -122 3435 0
1 122 3450 0
1 -137 -136 0
1 137 -3345 0
1 -137 3480 0
1 -152 3435 0
1 152 3420 0
1 -167 3360 0
1 -167 -3330 0
1 -167 3480 0
1 167 3435 0
1 -3420 3435 0
1 3420 -122 0
1 -3420 -3421 0
1 -3435 -107 0
1 3435 -182 0
1 3450 3465 0
1 -3450 213 0
1 -3450 3451 0
1 -3450 -92 0
1 3465 242 0
1 -182 -197 0
1 -182 181 0
1 182 -183 0
1 197 196 0
1 197 3270 0
1 -197 198 0
1 -197 3435 0
1 -197 3375 0
1 197 -3285 0
1 197 -182 0
1 197 3390 0
1 227 3270 0
1 3360 -212 0
1 3375 197 0
1 3375 -286 0
1 3390 227 0
1 -3390 3405 0
1 3390 -212 0
1 -3390 -152 0
1 -3405 257 0
1 -3405 197 0
1 3405 -212 0
1 3405 -3390 0
1 3405 -287 0
1 241 3360 0
1 -241 3301 0
1 -241 3240 0
1 241 -242 0
1 241 -3255 0
1 256 -3360 0
1 -271 3360 0
1 271 3271 0
1 -271 3375 0
1 286 3360 0
1 286 3331 0
1 286 3301 0
1 -286 -3241 0
1 -286 -271 0
1 3301 -3300 0
1 -3301 3302 0
1 -3301 3316 0
1 3301 -377 0
1 -3301 -286 0
1 3316 -227 0
1 3316 -362 0
1 3316 -346 0
1 3331 362 0
1 -3331 212 0
1 -3346 362 0
1 3346 -332 0
1 3346 271 0
1 -3346 -347 0
1 -301 -3256 0
1 301 -3225 0
1 -316 -3301 0
1 316 -3271 0
1 -316 -3210 0
1 -316 -301 0
1 331 346 0
1 -346 -3181 0
1 346 -3286 0
1 346 3256 0
1 3241 361 0
1 3241 -436 0
1 -3241 -406 0
1 3256 376 0
1 -3256 -346 0
1 -3271 331 0
1 3271 316 0
1 -3271 286 0
1 3286 3271 0
1 3286 -271 0
1 -3286 436 0
1 -3286 286 0
1 -361 -3106 0
1 -361 376 0
1 -361 -3166 0
1 376 -3211 0
1 376 3181 0
1 -391 3106 0
1 391 -392 0
1 391 -3211 0
1 -391 -3152 0
1 391 -3091 0
1 -391 -3167 0
1 -406 3256 0
1 3181 -331 0
1 3181 -3180 0
1 3196 361 0
1 3196 -435 0
1 3211 -3226 0
1 3211 -361 0
1 -3211 -331 0
1 -3211 496 0
1 -3211 346 0
1 -3226 -3211 0
1 420 -3181 0
1 420 -3061 0
1 435 3181 0
1 435 3122 0
1 -435 3091 0
1 435 3196 0
1 450 -465 0
1 -450 3062 0
1 450 3031 0
1 -465 450 0
1 -465 3046 0
1 3122 3137 0
1 -3122 510 0
1 -3137 -450 0
1 3137 495 0
1 -3152 556 0
1 -3152 541 0
1 3167 526 0
1 3167 -3152 0
1 -480 -3137 0
1 480 3077 0
1 480 -3016 0
1 480 3001 0
1 495 -480 0
1 -495 -3077 0
1 -495 -3001 0
1 510 -3047 0
1 510 3122 0
1 510 -3092 0
1 510 3062 0
1 -3062 480 0
1 3062 585 0
1 3062 -3063 0
1 3062 570 0
1 3077 -585 0
1 -3077 -525 0
1 -3077 465 0
1 3077 -3062 0
1 -3092 -495 0
1 -3092 465 0
1 3107 586 0
1 3107 571 0
1 -585 3047 0
1 3002 -585 0
1 -3002 -3001 0
1 -3002 -540 0
1 -3017 3018 0
1 -3017 -660 0
1 -3017 540 0
1 3032 3031 0
1 3032 600 0
1 -3032 540 0
1 -3047 -675 0
1 -3047 -615 0
1 3047 -555 0
1 -63 -3690 0
1 63 -3675 0
1 -78 -3705 0
1 -108 3645 0
1 -3660 -138 0
1 3660 108 0
1 3660 -93 0
1 -3690 -108 0
1 -3705 -78 0
1 -3705 -63 0
1 138 -3660 0
1 -138 3630 0
1 -138 -3615 0
1 -153 3660 0
1 -153 3510 0
1 -168 -3555 0
1 168 -167 0
1 -168 3630 0
1 168 -3510 0
1 -168 3615 0
1 3600 138 0
1 -3600 3601 0
1 3600 -243 0
1 3600 153 0
1 -3615 -183 0
1 -3615 123 0
1 -3630 108 0
1 -3630 -3631 0
1 3645 -108 0
1 -3645 -123 0
1 183 3465 0
1 198 3540 0
1 -198 -3450 0
1 213 3465 0
1 213 3570 0
1 213 3540 0
1 213 3615 0
1 -228 -227 0
1 228 -3540 0
1 -228 -3481 0
1 -228 3615 0
1 3540 -303 0
1 -3540 -287 0
1 3555 3556 0
1 3555 303 0
1 3570 -198 0
1 3570 303 0
1 3570 183 0
1 3585 258 0
1 3585 -228 0
1 -3585 -243 0
1 3585 213 0
1 -3585 183 0
1 3585 318 0
1 -242 3555 0
1 -242 3435 0
1 242 3540 0
1 242 -3420 0
1 -242 3390 0
1 -257 -258 0
1 -257 -3511 0
1 257 3450 0
1 272 3555 0
1 -272 -3466 0
1 -272 273 0
1 -3481 -228 0
1 -3481 363 0
1 -3481 -302 0
1 3496 -3481 0
1 -3496 378 0
1 3526 -3527 0
1 3526 -303 0
1 3526 -272 0
1 317 3331 0
1 -317 -3481 0
1 317 -3421 0
1 332 -333 0
1 -332 3346 0
1 -332 3481 0
1 -347 3406 0
1 3421 272 0
1 3421 377 0
1 3436 -3435 0
1 -3436 332 0
1 -3436 437 0
1 3451 3466 0
1 -3451 302 0
1 3466 -393 0
1 3466 3467 0
1 3466 3451 0
1 -3466 -408 0
1 3466 -317 0
1 -362 -3361 0
1 362 3301 0
1 -362 361 0
1 362 3436 0
1 362 3346 0
1 362 3316 0
1 362 -3286 0
1 362 3421 0
1 377 -3376 0
1 377 3286 0
1 392 -391 0
1 -407 -3271 0
1 -407 -3406 0
1 407 408 0
1 407 3421 0
1 407 3391 0
1 -3361 3360 0
1 3361 482 0
1 -3361 451 0
1 -3376 -392 0
1 -3376 362 0
1 3376 -3375 0
1 3376 377 0
1 -3391 362 0
1 3391 347 0
1 3406 -452 0
1 -3406 422 0
1 -3406 362 0
1 -3406 332 0
1 -3406 -347 0
1 421 -422 0
1 -421 -3211 0
1 421 3347 0
1 -436 -3302 0
1 -436 3376 0
1 -436 -435 0
1 -436 -437 0
1 451 -452 0
1 451 -3242 0
1 -451 3226 0
1 -466 -451 0
1 466 -3211 0
1 -466 465 0
1 3302 -451 0
1 -3302 3301 0
1 -3302 3303 0
1 3302 -392 0
1 3302 -557 0
1 3302 511 0
1 -3317 451 0
1 3317 557 0
1 3317 -466 0
1 -3332 3333 0
1 -3332 -436 0
1 3347 -512 0
1 3347 436 0
1 481 482 0
1 -481 3302 0
1 -481 -3242 0
1 -481 3181 0
1 481 -3226 0
1 -481 3196 0
1 -496 3272 0
1 496 -3152 0
1 496 -3317 0
1 511 -512 0
1 511 -3227 0
1 526 3182 0
1 -526 -3152 0
1 3242 451 0
1 3242 -526 0
1 -3242 -541 0
1 3257 -481 0
1 -3257 -496 0
1 -3257 -601 0
1 -3257 541 0
1 3272 -451 0
1 -3272 -3273 0
1 -3272 -526 0
1 -3287 587 0
1 3287 557 0
1 541 -3182 0
1 -541 -3152 0
1 -541 3257 0
1 541 -3197 0
1 -556 -3137 0
1 -556 -3227 0
1 -571 3242 0
1 -571 -3123 0
1 -586 -3138 0
1 -586 -3227 0
1 586 3092 0
1 -586 -571 0
1 -3182 3181 0
1 -3182 -630 0
1 3182 -600 0
1 3182 -511 0
1 3197 -676 0
1 3197 -615 0
1 -3212 -3213 0
1 3212 -526 0
1 3212 -661 0
1 -3227 556 0
1 600 3168 0
1 600 -3077 0
1 600 615 0
1 600 -3062 0
1 -615 -3168 0
1 615 3107 0
1 615 -3077 0
1 615 3182 0
1 615 -600 0
1 630 -3168 0
1 -630 3182 0
1 630 -3093 0
1 -630 3032 0
1 -645 -3078 0
1 -645 3182 0
1 -645 630 0
1 645 3063 0
1 645 3032 0
1 3123 -615 0
1 -3123 3122 0
1 -3123 660 0
1 -3138 -586 0
1 3138 -630 0
1 -3153 615 0
1 3168 691 0
1 -3168 -661 0
1 3168 -600 0
1 660 -3017 0
1 -660 3123 0
1 660 3093 0
1 -675 3093 0
1 690 -3048 0
1 -690 -691 0
1 705 3078 0
1 -705 3093 0
1 -705 3063 0
1 -3063 3078 0
1 3063 -720 0
1 3078 705 0
1 3078 -765 0
1 3093 690 0
1 -3093 3092 0
1 -720 3018 0
1 -720 3033 0
1 735 736 0
1 735 3078 0
1 735 3003 0
1 -765 750 0
1 -765 -766 0
1 3003 -705 0
1 -3018 765 0
1 -3033 -3048 0
1 3033 -735 0
1 -3048 750 0
1 -3048 -765 0
1 243 -3600 0
1 -258 257 0
1 -258 3661 0
1 273 -3616 0
1 -273 3631 0
1 288 -3676 0
1 -288 3646 0
1 -3661 288 0
1 3661 -243 0
1 3661 -3676 0
1 -3676 258 0
1 3676 303 0
1 3676 -3677 0
1 3691 -288 0
1 3691 -3690 0
1 -3706 3691 0
1 -3706 243 0
1 3706 3705 0
1 -303 3616 0
1 -303 3676 0
1 -318 3616 0
1 -318 303 0
1 -333 -3526 0
1 -333 3631 0
1 333 -3571 0
1 -333 -348 0
1 -333 -3676 0
1 348 3631 0
1 348 -3541 0
1 -3601 393 0
1 -3601 303 0
1 3616 -3617 0
1 -3616 303 0
1 -3631 333 0
1 3631 303 0
1 -3631 -318 0
1 -3646 -288 0
1 -3646 303 0
1 363 -3481 0
1 393 -3601 0
1 393 -3451 0
1 408 3512 0
1 -408 3482 0
1 -3541 -363 0
1 -3541 -3540 0
1 3541 3542 0
1 -3556 483 0
1 3556 348 0
1 3571 -3586 0
1 3571 -393 0
1 3586 333 0
1 3586 438 0
1 422 3497 0
1 437 -422 0
1 -437 3527 0
1 437 -3497 0
1 437 3466 0
1 437 -436 0
1 -437 3541 0
1 -437 -3391 0
1 -452 -3556 0
1 -452 453 0
1 -452 -3541 0
1 -467 3541 0
1 467 -3512 0
1 -3482 -3497 0
1 3482 497 0
1 3482 -467 0
1 -3482 -408 0
1 -3482 543 0
1 -3497 -3496 0
1 -3497 -393 0
1 -3497 408 0
1 -3497 -3482 0
1 3497 543 0
1 3512 483 0
1 3512 -452 0
1 3527 513 0
1 -3527 -422 0
1 -3527 3526 0
1 -3527 -558 0
1 3527 467 0
1 482 -3347 0
1 -497 -3422 0
1 -512 -3392 0
1 512 3437 0
1 -527 -512 0
1 -527 -3482 0
1 3422 -617 0
1 -3422 557 0
1 3422 602 0
1 3422 -572 0
1 -3437 -467 0
1 -3452 617 0
1 3452 -467 0
1 -3467 -3468 0
1 3467 -558 0
1 -3467 467 0
1 3467 -602 0
1 557 558 0
1 -557 3317 0
1 572 3377 0
1 587 3392 0
1 587 -3303 0
1 587 3272 0
1 -587 3437 0
1 587 -3287 0
1 -3362 -677 0
1 -3392 662 0
1 3407 512 0
1 -3407 3392 0
1 3407 647 0
1 -3407 -527 0
1 -3407 -632 0
1 -601 616 0
1 -601 -3377 0
1 -601 -3257 0
1 616 3362 0
1 -616 3257 0
1 -616 -3377 0
1 -631 -3333 0
1 631 3273 0
1 646 -645 0
1 646 3333 0
1 -646 3303 0
1 646 3273 0
1 -646 3243 0
1 -646 -631 0
1 646 3227 0
1 -3303 -616 0
1 3318 -676 0
1 -3318 -3317 0
1 -3318 -631 0
1 3333 722 0
1 -3333 -631 0
1 -3348 -737 0
1 3348 722 0
1 -661 -3227 0
1 -676 -3197 0
1 691 -3168 0
1 -691 -3213 0
1 -691 -3198 0
1 -706 -3183 0
1 -3243 751 0
1 3243 -631 0
1 3258 -676 0
1 3258 -646 0
1 3258 751 0
1 -3273 3288 0
1 -3273 -767 0
1 3288 631 0
1 -721 3138 0
1 -721 -3108 0
1 721 3213 0
1 -721 3183 0
1 721 -720 0
1 -721 722 0
1 -721 3258 0
1 736 -3168 0
1 -736 3213 0
1 -736 -3198 0
1 -751 -3258 0
1 -751 -3243 0
1 -751 3183 0
1 -751 3093 0
1 -766 -3108 0
1 -766 3213 0
1 -766 -3228 0
1 3183 -706 0
1 -3183 766 0
1 3213 721 0
1 -423 3631 0
1 423 3601 0
1 423 438 0
1 -423 3677 0
1 438 -3677 0
1 438 -3646 0
1 -453 3662 0
1 -453 3571 0
1 -453 -468 0
1 -453 -3677 0
1 -468 3662 0
1 -3662 498 0
1 3677 -3662 0
1 -3677 -528 0
1 3677 468 0
1 -3692 -453 0
1 -3707 -423 0
1 483 3662 0
1 -483 3512 0
1 483 -3677 0
1 498 -483 0
1 498 -497 0
1 513 3617 0
1 -513 3587 0
1 513 -3557 0
1 -513 -3602 0
1 -3602 3601 0
1 3617 3618 0
1 -3617 -3602 0
1 -3632 483 0
1 3632 468 0
1 3647 -618 0
1 3647 -498 0
1 3647 -603 0
1 558 -3467 0
1 -558 3482 0
1 558 543 0
1 573 -3587 0
1 573 -3467 0
1 588 3617 0
1 588 3528 0
1 588 -3467 0
1 588 -3602 0
1 -3542 -543 0
1 3557 678 0
1 3557 -617 0
1 -3557 602 0
1 -3557 543 0
1 3572 678 0
1 -3572 3573 0
1 -3587 3588 0
1 -3587 -3572 0
1 602 3392 0
1 -602 -3467 0
1 602 3513 0
1 -602 3542 0
1 617 3557 0
1 617 -616 0
1 -617 3467 0
1 617 3513 0
1 632 -3392 0
1 632 647 0
1 -632 3498 0
1 647 3557 0
1 647 3528 0
1 -647 3438 0
1 647 -3542 0
1 -647 3513 0
1 3483 -647 0
1 -3483 -617 0
1 -3483 723 0
1 3498 -588 0
1 3498 -692 0
1 3498 -602 0
1 3513 708 0
1 3513 -678 0
1 -3513 3512 0
1 -3513 -723 0
1 3513 602 0
1 -3528 678 0
1 3528 617 0
1 -3528 -573 0
1 662 -3333 0
1 -662 -3498 0
1 -662 -3348 0
1 677 -676 0
1 -677 3438 0
1 677 -3348 0
1 -692 -3453 0
1 707 -3393 0
1 707 3363 0
1 707 3498 0
1 707 -3483 0
1 3423 677 0
1 3423 722 0
1 3423 662 0
1 -3438 -707 0
1 -3438 662 0
1 3453 677 0
1 3453 662 0
1 -3468 -768 0
1 -3468 662 0
1 722 -3438 0
1 -722 -3408 0
1 -722 -723 0
1 737 3363 0
1 737 3273 0
1 -737 -722 0
1 737 -3318 0
1 737 3288 0
1 -752 -3363 0
1 -752 3378 0
1 752 -3288 0
1 752 -767 0
1 3363 737 0
1 -3363 -722 0
1 -3363 692 0
1 -3378 -752 0
1 -3393 737 0
1 3393 -707 0
1 3393 -767 0
1 -603 3663 0
1 603 -3647 0
1 -618 -3587 0
1 618 617 0
1 -618 3708 0
1 633 -3603 0
1 -633 3708 0
1 -648 -3587 0
1 -648 -647 0
1 648 -3663 0
1 648 3603 0
1 3663 -708 0
1 -3663 -633 0
1 -3678 633 0
1 -3708 -3707 0
1 -663 -3587 0
1 -663 -3633 0
1 663 3678 0
1 678 -3663 0
1 -678 3633 0
1 678 -3678 0
1 -693 -3648 0
1 -693 3573 0
1 -693 3513 0
1 693 3678 0
1 -708 707 0
1 -708 -3513 0
1 708 3678 0
1 3603 -708 0
1 -3603 -693 0
1 3618 -738 0
1 -3618 -708 0
1 3618 693 0
1 3633 -678 0
1 3633 648 0
1 -738 -3558 0
1 738 3513 0
1 -753 -752 0
1 753 3543 0
1 753 -3453 0
1 768 -3468 0
1 768 3453 0
1 -768 -767 0
1 3543 723 0
1 -3558 753 0
1 -3558 693 0
1 -3573 -3572 0
1 -3573 -693 0
1 -3588 708 0
1 3588 -693 0
